(declare-fun temp6462_2 () (_ BitVec 64))
(declare-fun temp6462_1 () (_ BitVec 64))
(declare-fun temp6462_3 () (_ BitVec 64))
(declare-fun var460169 () (_ BitVec 64))
(declare-fun temp6462_4 () (_ BitVec 64))
(declare-fun var460170 () (_ BitVec 64))
(declare-fun temp6462_5 () (_ BitVec 64))
(declare-fun var984886 () (_ BitVec 64))
(declare-fun var1183964 () (_ BitVec 64))
(declare-fun temp6462_6 () (_ BitVec 64))
(declare-fun temp6462_7 () (_ BitVec 64))
(declare-fun var460297 () (_ BitVec 64))
(declare-fun k!0 () Bool)
(declare-fun ARGNAME_n_NAMEEND () (_ BitVec 64))
(declare-fun temp6462_8 () (_ BitVec 64))
(declare-fun ARGNAME_input_NAMEEND_DIM () (_ BitVec 64))
(declare-fun var1640427 () (_ BitVec 64))
(declare-fun temp6462_10 () (_ BitVec 64))
(declare-fun temp6462_9 () (_ BitVec 64))
(declare-fun var1706871 () (_ BitVec 64))
(declare-fun temp6462_11 () (_ BitVec 64))
(declare-fun var1773320 () (_ BitVec 64))
(declare-fun var1838865 () (_ BitVec 64))
(declare-fun temp6462_13 () (_ BitVec 64))
(declare-fun temp6462_12 () (_ BitVec 64))
(declare-fun temp6462_14 () (_ BitVec 64))
(declare-fun var2035447 () (_ BitVec 64))
(declare-fun temp6462_15 () (_ BitVec 64))
(declare-fun var1640488 () (_ BitVec 64))
(declare-fun var1640530 () (_ BitVec 64))
(declare-fun temp6462_17 () (_ BitVec 64))
(declare-fun temp6462_16 () (_ BitVec 64))
(declare-fun temp6462_18 () (_ BitVec 64))
(declare-fun var2493432 () (_ BitVec 64))
(declare-fun temp6462_19 () (_ BitVec 64))
(declare-fun var2493482 () (_ BitVec 64))
(declare-fun temp6462_20 () (_ BitVec 64))
(declare-fun var1640475 () (_ BitVec 64))
(declare-fun var1640474 () (_ BitVec 64))
(declare-fun temp6462_21 () (_ BitVec 64))
(declare-fun var1640479 () (_ BitVec 64))
(declare-fun temp6462_22 () (_ BitVec 64))
(declare-fun var1640481 () (_ BitVec 64))
(declare-fun temp6462_23 () (_ BitVec 64))
(declare-fun var3737806 () (_ BitVec 64))
(declare-fun temp6462_24 () (_ BitVec 64))
(declare-fun temp6462_25 () (_ BitVec 64))
(declare-fun var3737852 () (_ BitVec 64))
(declare-fun var3737883 () (_ BitVec 64))
(declare-fun var3737804 () (_ BitVec 64))
(declare-fun var460364 () (_ BitVec 64))
(declare-fun var460372 () (_ BitVec 64))
(declare-fun temp6462_26 () (_ BitVec 64))
(assert (= temp6462_2 #x0000000000000000))
(assert (= temp6462_1 temp6462_2))
(assert (= temp6462_3 #x0000000000000001))
(assert (= var460169 temp6462_3))
(assert (= temp6462_4 #x0000000000000001))
(assert (= var460170 temp6462_4))
(assert (= temp6462_5 #x0000000000000000))
(assert (= var984886 temp6462_5))
(assert (= var1183964 var984886))
(assert (= temp6462_6 #x0000000000000001))
(assert (= var460297
   (ite (bvslt ARGNAME_n_NAMEEND temp6462_6)
        #x0000000000000001
        #x0000000000000000)))
(assert (= temp6462_7 #x0000000000000000))
(assert (= var460297 temp6462_7))
(assert (= temp6462_8 #x0000000000000001))
(assert (= var1640427 (bvshl ARGNAME_input_NAMEEND_DIM temp6462_8)))
(assert (= temp6462_10 #x0000000000000000))
(assert (= temp6462_9 temp6462_10))
(assert (= var1706871 var1640427))
(assert (= temp6462_11 #x0000000000000005))
(assert (= var1773320 temp6462_11))
(assert (= var1838865 var1706871))
(assert (= temp6462_13 #x0000000000000000))
(assert (= temp6462_12 temp6462_13))
(assert (= temp6462_14 #x0000000000000000))
(assert (= var2035447 temp6462_14))
(assert (= temp6462_15 #x0000000000000000))
(assert (= var1640488 temp6462_15))
(assert (= var1640530 var1640488))
(assert (= temp6462_17 #x0000000000000000))
(assert (= temp6462_16 temp6462_17))
(assert (= temp6462_18 #x0000000000000001))
(assert (= var2493432 temp6462_18))
(assert (= temp6462_19 #x0000000000000000))
(assert (= var2493482 temp6462_19))
(assert (= temp6462_20 #x0000000000000000))
(assert (= var2493482 temp6462_20))
(assert (= var1640475 var1640530))
(assert (= var1640474 var1640475))
(assert (= temp6462_21 #x0000000000000001))
(assert (= var1640479 (bvand var1640474 temp6462_21)))
(assert (= temp6462_22 #x0000000000000000))
(assert (= var1640481
   (ite (= var1640479 temp6462_22) #x0000000000000001 #x0000000000000000)))
(assert (= temp6462_23 #x0000000000000001))
(assert (= var1640481 temp6462_23))
(assert (= var3737806 var460169))
(assert (= temp6462_24 #x0000000000000002))
(assert (= temp6462_25 #x0000000000000000))
(assert (= var3737852 (ite (= var3737806 #x0000000000000001) temp6462_24 temp6462_25)))
(assert (= var3737883 var3737852))
(assert (= var3737804 var3737883))
(assert (= var460364 var3737804))
(assert (= var460372 var460364))
(assert (= temp6462_26 #x0000000000000001))
(assert (= var460169 temp6462_26))
(model-add temp6462_2 () (_ BitVec 64) #x0000000000000000)
(model-add temp6462_1 () (_ BitVec 64) #x0000000000000000)
(model-add temp6462_3 () (_ BitVec 64) #x0000000000000001)
(model-add var460169 () (_ BitVec 64) #x0000000000000001)
(model-add temp6462_4 () (_ BitVec 64) #x0000000000000001)
(model-add var460170 () (_ BitVec 64) #x0000000000000001)
(model-add temp6462_5 () (_ BitVec 64) #x0000000000000000)
(model-add var984886 () (_ BitVec 64) #x0000000000000000)
(model-add var1183964 () (_ BitVec 64) #x0000000000000000)
(model-add temp6462_6 () (_ BitVec 64) #x0000000000000001)
(model-add temp6462_7 () (_ BitVec 64) #x0000000000000000)
(model-add var460297 () (_ BitVec 64) #x0000000000000000)
(model-del k!0)
(model-add ARGNAME_n_NAMEEND
           ()
           (_ BitVec 64)
           (ite (or k!0 (= #x0000000000000001 #x8000000000000000))
                #x0000000000000001
                (bvsub #x0000000000000001 #x0000000000000001)))





